(declare-const a Real)
(declare-const b Real)
(declare-const c Real)
(assert (= (* a b c) 1))
(assert (> a 0))
(assert (> b 0))
(assert (> c 0))
(assert (not (<= (+ (/ 3 2) (* -1 (pow (+ (* (pow a (/ 4 3)) (pow b (/ 4 3))) (* (pow a (/ 4 3)) (pow c (/ 4 3))) (* (pow b (/ 4 3)) (pow c (/ 4 3)))) (/ 3 2)) (pow (+ (* (pow a (/ 4 3)) (pow b (/ 4 3)) (pow c (/ 10 3)) (pow (+ a b) 2)) (* (pow a (/ 4 3)) (pow b (/ 10 3)) (pow c (/ 4 3)) (pow (+ a c) 2)) (* (pow a (/ 10 3)) (pow b (/ 4 3)) (pow c (/ 4 3)) (pow (+ b c) 2))) (/ -1 2)))) 0)))
(check-sat)
(get-model)
(exit)